NAME: random-51-19234
TYPE: TSP
COMMENT: size=51 seed=19234
DIMENSION: 104
EDGE_WEIGHT_TYPE: EUC_2D
NODE_COORD_SECTION
+0 838 3
-0 838 3
+1 811 131
-1 408 573
+2 927 787
-2 688 80
+3 774 220
-3 842 66
+4 42 830
-4 582 813
+5 139 323
-5 690 26
+6 115 624
-6 270 733
+7 297 948
-7 375 264
+8 752 414
-8 961 611
+9 390 310
-9 19 292
+10 381 242
-10 309 594
+11 933 824
-11 596 942
+12 881 267
-12 160 166
+13 941 207
-13 542 966
+14 37 409
-14 931 194
+15 148 3
-15 756 624
+16 315 455
-16 625 457
+17 189 876
-17 122 518
+18 727 370
-18 127 825
+19 336 363
-19 488 888
+20 376 79
-20 851 307
+21 725 754
-21 50 592
+22 253 502
-22 197 305
+23 273 204
-23 225 107
+24 69 163
-24 32 813
+25 136 545
-25 786 189
+26 526 7
-26 267 53
+27 283 747
-27 881 430
+28 428 546
-28 944 567
+29 644 842
-29 850 732
+30 590 531
-30 117 576
+31 578 668
-31 209 762
+32 491 879
-32 608 383
+33 711 433
-33 738 435
+34 666 69
-34 443 673
+35 610 182
-35 380 35
+36 80 146
-36 391 231
+37 87 192
-37 973 137
+38 902 872
-38 656 541
+39 887 518
-39 238 922
+40 180 943
-40 506 57
+41 77 722
-41 139 539
+42 363 479
-42 503 198
+43 458 699
-43 694 238
+44 751 300
-44 21 819
+45 956 525
-45 975 533
+46 947 510
-46 127 236
+47 712 901
-47 288 555
+48 81 682
-48 811 126
+49 22 584
-49 736 854
+50 699 648
-50 470 685
+51 597 802
-51 502 304
PRECEDENCE_SECTION
+0 -0
+1 -1
+2 -2
+3 -3
+4 -4
+5 -5
+6 -6
+7 -7
+8 -8
+9 -9
+10 -10
+11 -11
+12 -12
+13 -13
+14 -14
+15 -15
+16 -16
+17 -17
+18 -18
+19 -19
+20 -20
+21 -21
+22 -22
+23 -23
+24 -24
+25 -25
+26 -26
+27 -27
+28 -28
+29 -29
+30 -30
+31 -31
+32 -32
+33 -33
+34 -34
+35 -35
+36 -36
+37 -37
+38 -38
+39 -39
+40 -40
+41 -41
+42 -42
+43 -43
+44 -44
+45 -45
+46 -46
+47 -47
+48 -48
+49 -49
+50 -50
+51 -51
EOF
